0000000000000000
0000000000000000
0000000000000000
0000000000000000
0000011111111000
0000011111111000
0000000001111000
0000000000011000
0000000000011000
0000011000011000
0000011000011000
0000011000011000
0000011000011000
0000000000001000
0000000000000000
0000000000000000
